NAME : portcgen-16-3
COMMENT : portcgen N=16, seed=3
TYPE : TSP
DIMENSION : 16
EDGE_WEIGHT_TYPE : EUC_2D
NODE_COORD_SECTION
1 322354 148460
2 -111107 -265679
3 -165135 376161
4 -132611 409902
5 -260783 23909
6 128852 -308137
7 -32477 -337465
8 228412 260728
9 -213123 -340027
10 90038 -229776
11 -214598 -36149
12 200997 370981
13 82972 -30696
14 -353349 -391879
15 -67477 146558
16 136408 87862
